(set-logic QF_S)
(declare-fun var0 () String)
(declare-fun var1 () String)
(declare-fun var2 () String)
(declare-fun var3 () String)
(declare-fun var4 () String)
(declare-fun var5 () String)
(declare-fun var6 () String)
(declare-fun var7 () String)
(declare-fun var8 () String)
(declare-fun var9 () String)
(declare-fun var10 () String)
(declare-fun var11 () String)
(declare-fun var12 () String)
(declare-fun var13 () String)
(declare-fun var14 () String)
(declare-fun var15 () String)
(declare-fun var16 () String)
(declare-fun var17 () String)
(declare-fun var18 () String)
(declare-fun var19 () String)
(declare-fun var20 () String)
(declare-fun var21 () String)
(declare-fun var22 () String)
(declare-fun var23 () String)
(declare-fun var24 () String)
(declare-fun var25 () String)
(declare-fun var26 () String)
(declare-fun var27 () String)
(declare-fun var28 () String)
(declare-fun var29 () String)
(declare-fun var30 () String)
(declare-fun var31 () String)
(declare-fun var32 () String)
(declare-fun var33 () String)
(declare-fun var34 () String)
(declare-fun var35 () String)
(declare-fun var36 () String)
(declare-fun var37 () String)
(declare-fun var38 () String)
(declare-fun var39 () String)
(declare-fun var40 () String)
(declare-fun var41 () String)
(declare-fun var42 () String)
(declare-fun var43 () String)
(declare-fun var44 () String)
(declare-fun var45 () String)
(declare-fun var46 () String)
(declare-fun var47 () String)
(declare-fun var48 () String)
(declare-fun var49 () String)
(declare-fun var50 () String)
(declare-fun var51 () String)
(declare-fun var52 () String)
(declare-fun var53 () String)
(declare-fun var54 () String)
(declare-fun var55 () String)
(declare-fun var56 () String)
(declare-fun var57 () String)
(declare-fun var58 () String)
(declare-fun var59 () String)
(declare-fun var60 () String)
(declare-fun var61 () String)
(declare-fun var62 () String)
(declare-fun var63 () String)
(declare-fun var64 () String)
(declare-fun var65 () String)
(declare-fun var66 () String)
(declare-fun var67 () String)
(declare-fun var68 () String)
(declare-fun var69 () String)
(assert (= 57 (Length var0)))
(assert (= 87 (Length var1)))
(assert (= 93 (Length var2)))
(assert (= 98 (Length var3)))
(assert (= 19 (Length var4)))
(assert (= 65 (Length var5)))
(assert (= 75 (Length var6)))
(assert (= 2 (Length var7)))
(assert (= 76 (Length var8)))
(assert (= 83 (Length var9)))
(assert (= 77 (Length var10)))
(assert (= 78 (Length var11)))
(assert (= 52 (Length var12)))
(assert (= 32 (Length var13)))
(assert (= 61 (Length var14)))
(assert (= 34 (Length var15)))
(assert (= 78 (Length var16)))
(assert (= 94 (Length var17)))
(assert (= 68 (Length var18)))
(assert (= 86 (Length var19)))
(assert (= 28 (Length var20)))
(assert (= 37 (Length var21)))
(assert (= 20 (Length var22)))
(assert (= 31 (Length var23)))
(assert (= 25 (Length var24)))
(assert (= 62 (Length var25)))
(assert (= 94 (Length var26)))
(assert (= 31 (Length var27)))
(assert (= 31 (Length var28)))
(assert (= 98 (Length var29)))
(assert (= 34 (Length var30)))
(assert (= 44 (Length var31)))
(assert (= 24 (Length var32)))
(assert (= 73 (Length var33)))
(assert (= 91 (Length var34)))
(assert (= 41 (Length var35)))
(assert (= 19 (Length var36)))
(assert (= 8 (Length var37)))
(assert (= 100 (Length var38)))
(assert (= 49 (Length var39)))
(assert (= 24 (Length var40)))
(assert (= 97 (Length var41)))
(assert (= 26 (Length var42)))
(assert (= 78 (Length var43)))
(assert (= 77 (Length var44)))
(assert (= 26 (Length var45)))
(assert (= 48 (Length var46)))
(assert (= 20 (Length var47)))
(assert (= 62 (Length var48)))
(assert (= 88 (Length var49)))
(assert (= 38 (Length var50)))
(assert (= 78 (Length var51)))
(assert (= 10 (Length var52)))
(assert (= 95 (Length var53)))
(assert (= 12 (Length var54)))
(assert (= 98 (Length var55)))
(assert (= 91 (Length var56)))
(assert (= 39 (Length var57)))
(assert (= 27 (Length var58)))
(assert (= 3 (Length var59)))
(assert (= 6 (Length var60)))
(assert (= 44 (Length var61)))
(assert (= 11 (Length var62)))
(assert (= 57 (Length var63)))
(assert (= 37 (Length var64)))
(assert (= 39 (Length var65)))
(assert (= 63 (Length var66)))
(assert (= 48 (Length var67)))
(assert (= 35 (Length var68)))
(assert (= 28 (Length var69)))
(assert (= 68 (Length (Concat var47 var67))))
(assert (= 129 (Length (Concat var13 var41))))
(assert (= 66 (Length (Concat var50 var69))))
(assert (= 125 (Length (Concat var15 var34))))
(assert (= 127 (Length (Concat var49 var57))))
(assert (= 132 (Length (Concat var9 var39))))
(assert (= 61 (Length (Concat var30 var58))))
(check-sat)